Route #1: 1 67 83 112 111 21 47 73 60 48 91 22 113 58 81 33 55 76 61 103 69 70 46 72 63 74 7 1 
Route #2: 1 1 39 102 110 78 95 59 93 35 92 57 100 62 54 1 
Route #3: 1 34 26 17 89 104 2 31 77 38 80 71 40 14 84 44 1 
Route #4: 1 37 97 45 96 11 36 13 51 19 32 52 88 98 1 
Route #5: 1 24 56 65 23 25 5 106 109 49 107 42 66 16 15 50 29 82 1 
Route #6: 1 90 8 27 30 9 28 99 18 53 64 85 1 
Route #7: 1 41 108 86 87 79 4 101 20 94 114 105 75 68 43 1 
Route #8: 1 12 6 1 
Route #9: 1 10 1 
Route #10: 1 3 1 

Cost 25653.8
Time 3.4105


 * Another infos *

 Iterations: 115 Time: 3.4105 sec - 0.0568 min - 0.0009 horas
0.0000 h 0.0568 min
Problem dimension: 115
